SCIP Status        : solving was interrupted [time limit reached]
Total Time         :    3600.01
  solving          :    3600.01
  presolving       :       0.00 (included in solving)
  reading          :       0.00
  copying          :       0.22 (80 #copies) (minimal 0.00, maximal 0.00, average 0.00)
Original Problem   :
  Problem name     : ex7_2_1
  Variables        : 8 (0 binary, 0 integer, 0 implicit integer, 8 continuous)
  Constraints      : 15 initial, 15 maximal
  Objective        : minimize, 2 non-zeros (abs.min = 1, abs.max = 10)
Presolved Problem  :
  Problem name     : t_ex7_2_1
  Variables        : 41 (0 binary, 0 integer, 0 implicit integer, 41 continuous)
  Constraints      : 13 initial, 13 maximal
  Objective        : minimize, 2 non-zeros (abs.min = 1, abs.max = 10)
  Nonzeros         : 40 constraint, 0 clique table
Presolvers         :   ExecTime  SetupTime  Calls  FixedVars   AggrVars   ChgTypes  ChgBounds   AddHoles    DelCons    AddCons   ChgSides   ChgCoefs
  boundshift       :       0.00       0.00      0          0          0          0          0          0          0          0          0          0
  convertinttobin  :       0.00       0.00      0          0          0          0          0          0          0          0          0          0
  domcol           :       0.00       0.00      1          0          0          0          0          0          0          0          0          0
  dualagg          :       0.00       0.00      0          0          0          0          0          0          0          0          0          0
  dualcomp         :       0.00       0.00      1          0          0          0          0          0          0          0          0          0
  dualinfer        :       0.00       0.00      0          0          0          0          0          0          0          0          0          0
  dualsparsify     :       0.00       0.00      1          0          0          0          0          0          0          0          0          0
  gateextraction   :       0.00       0.00      0          0          0          0          0          0          0          0          0          0
  implics          :       0.00       0.00      1          0          0          0          0          0          0          0          0          0
  inttobinary      :       0.00       0.00      0          0          0          0          0          0          0          0          0          0
  qpkktref         :       0.00       0.00      0          0          0          0          0          0          0          0          0          0
  redvub           :       0.00       0.00      0          0          0          0          0          0          0          0          0          0
  sparsify         :       0.00       0.00      1          0          0          0          0          0          0          0          0          0
  stuffing         :       0.00       0.00      0          0          0          0          0          0          0          0          0          0
  trivial          :       0.00       0.00      2          0          0          0          0          0          0          0          0          0
  tworowbnd        :       0.00       0.00      0          0          0          0          0          0          0          0          0          0
  dualfix          :       0.00       0.00      2          0          0          0          0          0          0          0          0          0
  genvbounds       :       0.00       0.00      0          0          0          0          0          0          0          0          0          0
  probing          :       0.00       0.00      0          0          0          0          0          0          0          0          0          0
  pseudoobj        :       0.00       0.00      0          0          0          0          0          0          0          0          0          0
  symmetry         :       0.00       0.00      1          0          0          0          0          0          0          0          0          0
  vbounds          :       0.00       0.00      0          0          0          0          0          0          0          0          0          0
  linear           :       0.00       0.00      3          0          0          0          2          0          0          0          0          0
  nonlinear        :       0.00       0.00      4          0          0          0          9          0          2          0          0          0
  benders          :       0.00       0.00      0          0          0          0          0          0          0          0          0          0
  components       :       0.00       0.00      1          0          0          0          0          0          0          0          0          0
  root node        :          -          -      -          0          -          -         56          -          -          -          -          -
Constraints        :     Number  MaxNumber  #Separate #Propagate    #EnfoLP    #EnfoRelax  #EnfoPS    #Check   #ResProp    Cutoffs    DomReds       Cuts    Applied      Conss   Children
  benderslp        :          0          0          0          0    7948726          0     314442      79222          0          0          0          0          0          0          0
  integral         :          0          0          0          0    7948726          0          0      79222          0          0          0          0          0          0          0
  linear           :          2+         3         17    3343134     105206          0     287889      79218          0         27     143659          0          0          0          0
  nonlinear        :         11         11    8605090    9256481    7948726          0     314442      79217          0    2429936   35985404    1599221    1475902          0    4588728
  benders          :          0          0          0          0     580084          0     314442        201          0          0          0          0          0          0          0
  countsols        :          0          0          0          0     580084          0     314442        201          0          0          0          0          0          0          0
  components       :          0          0          0          0          0          0          0          0          0          0          0          0          0          0          0
Constraint Timings :  TotalTime  SetupTime   Separate  Propagate     EnfoLP     EnfoPS     EnfoRelax   Check    ResProp    SB-Prop
  benderslp        :       1.18       0.00       0.00       0.00       1.12       0.05       0.00       0.00       0.00       0.00
  integral         :       1.08       0.00       0.00       0.00       1.07       0.00       0.00       0.01       0.00       0.00
  linear           :       1.67       0.00       0.00       1.47       0.05       0.14       0.00       0.01       0.00       0.00
  nonlinear        :    1455.63       0.00      93.39     166.46    1193.19       2.29       0.00       0.31       0.00       0.00
  benders          :       0.12       0.00       0.00       0.00       0.08       0.04       0.00       0.00       0.00       0.00
  countsols        :       0.15       0.00       0.00       0.00       0.11       0.05       0.00       0.00       0.00       0.00
  components       :       0.53       0.00       0.00       0.53       0.00       0.00       0.00       0.00       0.00       0.00
Propagators        : #Propagate   #ResProp    Cutoffs    DomReds
  dualfix          :          4          0          0          0
  genvbounds       :    4591036          0          0      18955
  nlobbt           :          0          0          0          0
  obbt             :          4          0          0          6
  probing          :          0          0          0          0
  pseudoobj        :   17205214          0          0     411304
  redcost          :          0          0          0          0
  rootredcost      :          8          0          0          4
  symmetry         :          0          0          0          0
  vbounds          :          0          0          0          0
Propagator Timings :  TotalTime  SetupTime   Presolve  Propagate    ResProp    SB-Prop
  dualfix          :       0.00       0.00       0.00       0.00       0.00       0.00
  genvbounds       :       6.77       0.00       0.00       6.77       0.00       0.00
  nlobbt           :       0.00       0.00       0.00       0.00       0.00       0.00
  obbt             :       0.01       0.00       0.00       0.01       0.00       0.00
  probing          :       0.00       0.00       0.00       0.00       0.00       0.00
  pseudoobj        :       7.62       0.00       0.00       7.62       0.00       0.00
  redcost          :       3.03       0.00       0.00       3.03       0.00       0.00
  rootredcost      :       2.39       0.00       0.00       2.39       0.00       0.00
  symmetry         :       0.78       0.00       0.00       0.78       0.00       0.00
  vbounds          :       2.15       0.00       0.00       2.15       0.00       0.00
Conflict Analysis  :       Time      Calls    Success    DomReds  Conflicts   Literals    Reconvs ReconvLits   Dualrays   Nonzeros   LP Iters   (pool size: [--,--])
  propagation      :       0.00          0          0          -          0        0.0          0        0.0          -          -          -
  infeasible LP    :       1.20     164439         18          -          0        0.0          0        0.0          9        1.0          0
  bound exceed. LP :       0.75     195422          0          -          0        0.0          0        0.0          0        0.0          0
  strong branching :       0.00          0          0          -          0        0.0          0        0.0          -          -          0
  pseudo solution  :       0.00          0          0          -          0        0.0          0        0.0          -          -          -
  applied globally :       0.00          -          -          0          0        0.0          -          -          0          -          -
  applied locally  :          -          -          -          9          0        0.0          -          -          9          -          -
Separators         :   ExecTime  SetupTime      Calls  RootCalls    Cutoffs    DomReds  FoundCuts ViaPoolAdd  DirectAdd    Applied ViaPoolApp  DirectApp      Conss
  cut pool         :       0.00          -          0          0          -          -          0          0          -          -          -          -          -    (maximal pool size:          0)
  aggregation      :       0.08       0.00          0          0          0          0          0          0          0          0          0          0          0
  > cmir           :          -          -          -          -          -          -          -          0          0          0          0          0          -
  > flowcover      :          -          -          -          -          -          -          -          0          0          0          0          0          -
  > knapsackcover  :          -          -          -          -          -          -          -          0          0          0          0          0          -
  cgmip            :       0.00       0.00          0          0          0          0          0          0          0          0          0          0          0
  clique           :       0.00       0.00          0          0          0          0          0          0          0          0          0          0          0
  closecuts        :       0.00       0.00          0          0          0          0          0          0          0          0          0          0          0
  convexproj       :       0.00       0.00          0          0          0          0          0          0          0          0          0          0          0
  disjunctive      :       0.00       0.00          0          0          0          0          0          0          0          0          0          0          0
  eccuts           :       0.00       0.00          0          0          0          0          0          0          0          0          0          0          0
  gauge            :       0.00       0.00          0          0          0          0          0          0          0          0          0          0          0
  gomory           :       0.14       0.00          0          0          0          0          0          0          0          0          0          0          0
  > gomorymi       :          -          -          -          -          -          -          -          0          0          0          0          0          -
  > strongcg       :          -          -          -          -          -          -          -          0          0          0          0          0          -
  impliedbounds    :       0.05       0.00          0          0          0          0          0          0          0          0          0          0          0
  interminor       :       0.00       0.00          0          0          0          0          0          0          0          0          0          0          0
  intobj           :       0.00       0.00          0          0          0          0          0          0          0          0          0          0          0
  mcf              :       0.00       0.00          0          0          0          0          0          0          0          0          0          0          0
  minor            :       0.09       0.00          0          0          0          0          0          0          0          0          0          0          0
  mixing           :       0.06       0.00     288768         18          0          0          0          0          0          0          0          0          0
  oddcycle         :       0.00       0.00          0          0          0          0          0          0          0          0          0          0          0
  rapidlearning    :       0.01       0.00          0          0          0          0          0          0          0          0          0          0          0
  rlt              :       0.00       0.00         10         10          0          0          0          0          0          0          0          0          0
  zerohalf         :       0.07       0.00          0          0          0          0          0          0          0          0          0          0          0
Cutselectors       :   ExecTime  SetupTime      Calls  RootCalls   Selected     Forced   Filtered  RootSelec   RootForc   RootFilt 
  hybrid           :       0.74       0.00     790898         15     914919          0      15043         27          0         11
Pricers            :   ExecTime  SetupTime      Calls       Vars
  problem variables:       0.00          -          0          0
Branching Rules    :   ExecTime  SetupTime   BranchLP  BranchExt   BranchPS    Cutoffs    DomReds       Cuts      Conss   Children
  allfullstrong    :       0.00       0.00          0          0          0          0          0          0          0          0
  cloud            :       0.00       0.00          0          0          0          0          0          0          0          0
  distribution     :       0.00       0.00          0          0          0          0          0          0          0          0
  fullstrong       :       0.00       0.00          0          0          0          0          0          0          0          0
  inference        :       0.00       0.00          0          0          0          0          0          0          0          0
  leastinf         :       0.00       0.00          0          0          0          0          0          0          0          0
  lookahead        :       0.00       0.00          0          0          0          0          0          0          0          0
  mostinf          :       0.00       0.00          0          0          0          0          0          0          0          0
  multaggr         :       0.00       0.00          0          0          0          0          0          0          0          0
  nodereopt        :       0.00       0.00          0          0          0          0          0          0          0          0
  pscost           :       4.25       0.00          0     894526          0          0          0          0          0    1789052
  random           :       0.00       0.00          0          0          0          0          0          0          0          0
  relpscost        :       0.00       0.00          0          0          0          0          0          0          0          0
  vanillafullstrong:       0.00       0.00          0          0          0          0          0          0          0          0
Primal Heuristics  :   ExecTime  SetupTime      Calls      Found       Best
  LP solutions     :       0.00          -          -          0          0
  relax solutions  :       0.00          -          -          0          0
  pseudo solutions :       0.00          -          -          0          0
  strong branching :       0.00          -          -          0          0
  actconsdiving    :       0.00       0.00          0          0          0
  adaptivediving   :       0.58       0.00      10595          0          0
  alns             :       0.76       0.00         80          0          0
  bound            :       0.00       0.00          0          0          0
  clique           :       0.00       0.00          0          0          0
  coefdiving       :       0.00       0.00          0          0          0
  completesol      :       0.00       0.00          0          0          0
  conflictdiving   :       0.42       0.00          0          0          0
  crossover        :       0.46       0.00          0          0          0
  dins             :       0.00       0.00          0          0          0
  distributiondivin:       0.11       0.00          0          0          0
  dps              :       0.00       0.00          0          0          0
  dualval          :       0.00       0.00          0          0          0
  farkasdiving     :       0.14       0.00          0          0          0
  feaspump         :       0.14       0.00          0          0          0
  fixandinfer      :       0.00       0.00          0          0          0
  fracdiving       :       0.34       0.00      14475          0          0
  gins             :       0.10       0.00          0          0          0
  guideddiving     :       0.08       0.00          0          0          0
  indicator        :       1.17       0.00          0          0          0
  indicatordiving  :       0.00       0.00          0          0          0
  intdiving        :       0.00       0.00          0          0          0
  intshifting      :       0.06       0.00          0          0          0
  linesearchdiving :       0.43       0.00      14437          0          0
  localbranching   :       0.00       0.00          0          0          0
  locks            :       0.00       0.00          0          0          0
  lpface           :       0.90       0.00          0          0          0
  mpec             :       0.06       0.00          0          0          0
  multistart       :       0.13       0.00          1          1          1
  mutation         :       0.00       0.00          0          0          0
  nlpdiving        :       0.08       0.00          0          0          0
  objpscostdiving  :       0.17       0.00          0          0          0
  octane           :       0.00       0.00          0          0          0
  ofins            :       0.50       0.00          0          0          0
  oneopt           :       1.11       0.00          0          0          0
  padm             :       0.00       0.00          0          0          0
  proximity        :       0.00       0.00          0          0          0
  pscostdiving     :       0.10       0.00          0          0          0
  randrounding     :       0.08       0.00          0          0          0
  rens             :       0.89       0.00          0          0          0
  reoptsols        :       0.00       0.00          0          0          0
  repair           :       0.00       0.00          0          0          0
  rins             :       0.11       0.00          0          0          0
  rootsoldiving    :       0.13       0.00          0          0          0
  rounding         :       1.21       0.00          0          0          0
  shiftandpropagate:       0.00       0.00          0          0          0
  shifting         :       0.16       0.00          0          0          0
  simplerounding   :       1.33       0.00          0          0          0
  subnlp           :      58.03       0.00       4900        199          9
  trivial          :       0.00       0.00          2          0          0
  trivialnegation  :       0.00       0.00          0          0          0
  trustregion      :       0.00       0.00          0          0          0
  trysol           :       1.09       0.00          0          0          0
  twoopt           :       0.00       0.00          0          0          0
  undercover       :       0.00       0.00          1          0          0
  vbounds          :       0.00       0.00          0          0          0
  veclendiving     :       0.10       0.00          0          0          0
  zeroobj          :       0.00       0.00          0          0          0
  zirounding       :       0.79       0.00          0          0          0
  other solutions  :          -          -          -          0          -
Expressions        :   #IntEval  IntEvalTi   #RevProp  RevPropTi    DomReds    Cutoffs  #Estimate  EstimTime  Branching  #Simplify SimplifyTi Simplified
  pow              :   36526274       7.24    1027153       0.48    1026493          0   22491522       3.86    3331247         85       0.00          0
  prod             :   41691734      10.05     865210       0.53      33696     313176    6603979     514.58    5607379         97       0.00         61
  sum              :   24718625       7.84    6177995       4.36    1682098         47       1967       0.00          0         99       0.00         17
  val              :          0       0.00          0       0.00          0          0          0       0.00          0          0       0.00          0
  var              :   33222607       1.97          0       0.00          0          0          0       0.00          0        176       0.00          0
Nlhdlrs            :    Detects  DetectAll DetectTime   #IntEval  IntEvalTi   #RevProp  RevPropTi    DomReds    Cutoffs   #Enforce   EnfoTime       Cuts  Branching
  soc              :          0          0       0.00          0       0.00          0       0.00          0          0          0       0.00          0          0
  convex           :          0          0       0.00          0       0.00          0       0.00          0          0          0       0.00          0          0
  concave          :          1          1       0.00          0       0.00          0       0.00          0          0          1       0.00          0          0
  signomial        :         12         12       0.00          0       0.00          0       0.00          0          0   11458843     572.56      21704          0
  quotient         :          8          8       0.00          0       0.00          0       0.00          0          0      44504       0.06      36863          0
  quadratic        :          6         32       0.00   17201903      19.32    8779506      18.88    1326571         30          0       0.00          0          0
  default          :         41        157       0.00  102936498      31.32    8070382      10.98    2742287     313273   29097463     562.63    1540655          0
  bilinear         :          9          9       0.00   11893702       0.88     412605       0.05          0          0     445387       0.13          0          0
  perspective      :          0          0       0.00          0       0.00          0       0.00          0          0          0       0.00          0          0
LP                 :       Time      Calls Iterations  Iter/call   Iter/sec  Time-0-It Calls-0-It    ItLimit
  primal LP        :      82.20     677837          0       0.00       0.00      82.15     677837
  dual LP          :    1065.07   10089080    9352869       3.07    8781.43     566.03    7046040
  lex dual LP      :       0.00          0          0       0.00          -
  barrier LP       :       0.00          0          0       0.00          -       0.00          0
  resolve instable :       0.02         85       1458      17.15   66834.75
  diving/probing LP:       0.01         24        422      17.58          -
  strong branching :       0.00          0          0       0.00          -          -          -          0
    (at root node) :          -          0          0       0.00          -
  conflict analysis:       0.00          0          0       0.00          -
NLP relaxation     :
  solve time       :       0.00 (0 calls)
  convexity        :  nonconvex (2 linear rows, 1 convex ineq., 10 nonconvex ineq., 0 nonlinear eq. or two-sided ineq.)
NLP Solvers        :  #Problems  ProblemTi    #Solves  SolveTime      #Iter  Time/Iter      #Okay #TimeLimit #IterLimit #LObjLimit #Interrupt  #NumError #EvalError  #OutOfMem #LicenseEr #OtherTerm   #GlobOpt    #LocOpt  #Feasible #LocInfeas #GlobInfea #Unbounded   #Unknown
  ipopt            :          2       0.00       4903      55.54      73442       0.00       4903          0          0          0          0          0          0          0          0          0          0       4903          0          0          0          0          0
B&B Tree           :
  number of runs   :          1
  nodes            :    5997972 (3188890 internal, 2809082 leaves)
  feasible leaves  :          0
  infeas. leaves   :    2594392
  objective leaves :     214690
  nodes (total)    :    5997972 (3188890 internal, 2809082 leaves)
  nodes left       :     379809
  max depth        :         79
  max depth (total):         79
  backtracks       :    1746692 (29.1%)
  early backtracks :          0 (0.0%)
  nodes exc. ref.  :          0 (0.0%)
  delayed cutoffs  :          0
  repropagations   :          4 (0 domain reductions, 0 cutoffs)
  avg switch length:      16.56
  switching time   :     292.22
Root Node          :
  First LP value   : +9.61337297343403e+02
  First LP Iters   :         16 (27586.21 Iter/sec)
  First LP Time    :       0.00
  Final Dual Bound : +1.09983836690891e+03
  Final Root Iters :         94
  Root LP Estimate : +1.10055521373446e+03
Solution           :
  Solutions found  :        200 (10 improvements)
  First Solution   : +1.22722570101426e+03   (in run 1, after 1 nodes, 0.02 seconds, depth 0, found by <subnlp>)
  Gap First Sol.   :      27.66 %
  Gap Last Sol.    :       4.73 %
  Primal Bound     : +1.22722570044401e+03   (in run 1, after 5017229 nodes, 3046.09 seconds, depth 43, found by <adaptivediving>)
  Dual Bound       : +1.17334598155211e+03
  Gap              :       4.59 %
Integrals          :      Total       Avg%
  primal-dual      :   20266.00       5.63
  primal-ref       :          -          - (not evaluated)
  dual-ref         :          -          - (not evaluated)
